DIMENSION: 7
EDGE_WEIGHT_TYPE: EXPLICIT
EDGE_WEIGHT_FORMAT: FULL_MATRIX
EDGE_WEIGHT_SECTION:
0	12	11	17	113	9	2	43
12	0	9	125	13	16	87	12
11	9	0	26	6	112	34	65
17	125	26	0	8	23	29	56
113	13	6	8	0	45	98	9
9	16	112	23	45	0	7	73
2	87	34	29	98	7	0	32
43	12	65	56	9	73	32	0
EOF
